SumColouring/JavaBacktracker/RandomInstances/18_0.05_1.col
c File: instances/18_0.05_1.col
c
c Description: Random graph of size 18 vertices and P(0.05) of edges between any two vertices.
p col 18 153
e 1 12
e 3 9
e 3 11
e 4 16
e 5 8
e 7 15
e 8 10
e 8 11
e 10 12
e 12 13
e 12 18
e 16 18