SumColouring/MiniZinc model/Experiments/18_0.05_1.col.dzn
% Data file generated from RandomInstances/18_0.05_1.col DIMACS file
size = 18;

chi = 2;

adjacency = [|0,0,0,0,0,0,0,0,0,0,0,1,0,0,0,0,0,0,
|0,0,0,0,0,0,0,0,0,0,0,0,0,0,0,0,0,0,
|0,0,0,0,0,0,0,0,1,0,1,0,0,0,0,0,0,0,
|0,0,0,0,0,0,0,0,0,0,0,0,0,0,0,1,0,0,
|0,0,0,0,0,0,0,1,0,0,0,0,0,0,0,0,0,0,
|0,0,0,0,0,0,0,0,0,0,0,0,0,0,0,0,0,0,
|0,0,0,0,0,0,0,0,0,0,0,0,0,0,1,0,0,0,
|0,0,0,0,1,0,0,0,0,1,1,0,0,0,0,0,0,0,
|0,0,1,0,0,0,0,0,0,0,0,0,0,0,0,0,0,0,
|0,0,0,0,0,0,0,1,0,0,0,1,0,0,0,0,0,0,
|0,0,1,0,0,0,0,1,0,0,0,0,0,0,0,0,0,0,
|1,0,0,0,0,0,0,0,0,1,0,0,1,0,0,0,0,1,
|0,0,0,0,0,0,0,0,0,0,0,1,0,0,0,0,0,0,
|0,0,0,0,0,0,0,0,0,0,0,0,0,0,0,0,0,0,
|0,0,0,0,0,0,1,0,0,0,0,0,0,0,0,0,0,0,
|0,0,0,1,0,0,0,0,0,0,0,0,0,0,0,0,0,1,
|0,0,0,0,0,0,0,0,0,0,0,0,0,0,0,0,0,0,
|0,0,0,0,0,0,0,0,0,0,0,1,0,0,0,1,0,0,
|];